minizinc/sudoku_problems2/sudoku_p25.dzn
%
% sudoku_p25.dzn
% See http://www.hakank.org/minizinc/sudoku_gcc.mzn
% 
% This problem is problem 25 from
% Gecode's sudoku.cpp
% http://www.gecode.org/gecode-doc-latest/sudoku_8cpp-source.html
% 
x = array2d(1..n, 1..n, [   
% 25
  _,  1,  _,  _, 18,  8,  _, 25,  _,  _,  6,  _, 23,  _,  _,  _, 11, 13,  _,  _,  _,  3, 24,  _,  _,
  _,  9,  _,  6,  _,  _,  _, 14,  _, 22,  4,  3,  _,  8,  _,  _, 10, 20,  _,  2, 19,  _,  1,  _,  _,
  _,  _,  _, 19, 20, 21,  _,  _,  _, 15, 10,  _,  _,  _, 25,  _, 18,  4,  _,  _,  _, 13, 11,  _,  _,
 14,  _,  _,  _, 25,  _, 18,  _, 11,  _,  7,  _,  1,  _,  _, 19,  _, 17, 12,  _,  _,  _,  9,  8,  _,
  _,  _,  5, 22,  8, 16, 19,  _, 20, 13,  _, 24,  _,  _,  _, 23,  3,  _,  _,  1, 10, 18,  _,  _,  _,
 20,  _,  2, 12,  4,  _, 22,  _, 23,  _,  _, 19,  _,  _, 18,  _,  _,  _,  _,  _,  _,  _, 17,  _,  5,
 23,  _,  _, 11,  9, 24,  _, 13,  _,  _,  _, 20, 17,  6,  _, 14,  _,  _,  _, 12,  _,  _,  _,  7, 18,
 13, 14,  _,  _, 19, 20,  4,  _,  _,  _,  _,  _, 21,  _,  1, 11,  7,  _,  _,  6,  8, 25, 23,  2,  _,
  _,  _,  _,  _,  _, 25,  _,  _,  _, 12,  _,  _, 15,  _,  7,  _,  _,  _, 21,  _, 24,  9,  _,  _,  _,
  _,  _,  _,  3,  5,  _, 17,  _,  _,  _,  _,  _,  _,  9,  2,  _,  _, 22,  _,  4,  _, 14, 12,  _,  1,
 25,  _,  _, 18, 21,  _,  _, 17,  _,  _,  _,  _,  _,  _,  _,  _,  _,  1,  _,  _,  3,  _, 13,  _,  _,
  _,  _,  _,  _, 11,  9,  _,  _,  8,  _,  3, 18,  5,  _, 12,  _,  _,  _, 20,  _,  _,  _, 15,  1,  _,
 15, 17,  _,  _,  _,  _,  2, 24,  _,  _, 13,  _,  4, 22,  _, 25,  _,  _,  _, 10,  _,  _,  _, 16, 12,
 19, 10,  _,  _,  _,  _,  _,  _,  _, 20, 15,  _,  _,  _,  _,  _,  _,  _,  4,  _, 14, 24, 22, 18, 25,
  3,  _,  7, 16, 23, 15,  _,  _,  _, 10,  _,  2, 24, 11,  9, 12,  _, 14,  5,  _, 17, 19,  _,  _,  _,
  2,  _, 18,  _,  1,  _,  _,  _,  _,  _,  _,  _, 10, 24,  5,  _, 25,  _,  _,  _, 20,  _,  3,  _,  _,
  _,  _, 17,  _,  _,  _,  _, 21,  _,  _, 22,  _, 12, 18, 19,  _,  _,  7,  _,  _,  _,  4,  _,  _,  _,
 16, 24,  _,  9,  _,  _, 20, 15,  _, 18,  _, 25,  3,  _,  _,  _, 14,  _, 17, 19,  _,  _,  _, 23,  7,
  5,  _,  3,  7,  _,  _,  _, 11,  _, 14,  _,  _,  _,  4, 23,  _,  _, 24,  _,  8,  _,  _,  _,  _,  _,
  4, 11,  _,  _,  _,  7,  _,  9, 24,  _, 17, 21,  _,  _, 14,  2, 12,  3,  _, 20,  5,  1,  _, 22,  _,
 21,  _, 24,  4,  2,  _,  _,  _, 13,  _,  _, 10, 19,  _,  8,  _,  _,  _, 16, 17,  _, 23,  _,  _, 14,
  9, 22,  _,  8,  _, 17,  _,  _, 21, 16,  1,  _,  _, 23,  _,  _,  5,  _, 14,  _,  _, 15,  7, 11,  _,
  _,  _,  _,  _,  _,  _, 15, 10, 12,  _,  _,  5, 22,  _,  _, 18,  6, 19,  _, 11,  4,  _,  _,  _, 16,
  _,  _,  _, 15,  _,  _,  8,  2,  _,  _, 25,  _, 14,  _,  _,  _,  _,  _,  _,  3,  6, 17, 20,  _, 21,
 11,  _, 19,  _, 16,  5,  _,  _,  _, 24,  _, 17,  2,  _,  _,  9,  8,  _,  7,  _,  _,  _,  _,  _,  _
]);

n = 25;


